\Problem name: compact

Minimize
OBJROW: C
Subject To
ord(0,1):  - x(0,1) + x(0,2) >= 10
ord(0,2):  - x(0,2) + x(0,3) >= 2
ord(0,3):  x(0,0) - x(0,3) >= 8
ord(1,1):  - x(1,2) + x(1,3) >= 6
ord(1,2):  x(1,0) - x(1,3) >= 1
ord(1,3):  - x(1,0) + x(1,1) >= 8
ord(2,1):  x(2,0) - x(2,2) >= 2
ord(2,2):  - x(2,0) + x(2,3) >= 10
ord(2,3):  x(2,1) - x(2,3) >= 4
ord(3,1):  - x(3,2) + x(3,3) >= 8
ord(3,2):  x(3,1) - x(3,3) >= 9
ord(3,3):  x(3,0) - x(3,1) >= 8
triangle2(0,1,0):  y(0,1,0) + y(1,0,0) = 1
triangle2(0,1,1):  y(0,1,1) + y(1,0,1) = 1
triangle2(0,1,2):  y(0,1,2) + y(1,0,2) = 1
triangle2(0,1,3):  y(0,1,3) + y(1,0,3) = 1
triangle2(0,2,0):  y(0,2,0) + y(2,0,0) = 1
triangle2(0,2,1):  y(0,2,1) + y(2,0,1) = 1
triangle2(0,2,2):  y(0,2,2) + y(2,0,2) = 1
triangle2(0,2,3):  y(0,2,3) + y(2,0,3) = 1
triangle2(0,3,0):  y(0,3,0) + y(3,0,0) = 1
triangle2(0,3,1):  y(0,3,1) + y(3,0,1) = 1
triangle2(0,3,2):  y(0,3,2) + y(3,0,2) = 1
triangle2(0,3,3):  y(0,3,3) + y(3,0,3) = 1
triangle2(1,2,0):  y(1,2,0) + y(2,1,0) = 1
triangle2(1,2,1):  y(1,2,1) + y(2,1,1) = 1
triangle2(1,2,2):  y(1,2,2) + y(2,1,2) = 1
triangle2(1,2,3):  y(1,2,3) + y(2,1,3) = 1
triangle2(1,3,0):  y(1,3,0) + y(3,1,0) = 1
triangle2(1,3,1):  y(1,3,1) + y(3,1,1) = 1
triangle2(1,3,2):  y(1,3,2) + y(3,1,2) = 1
triangle2(1,3,3):  y(1,3,3) + y(3,1,3) = 1
triangle2(2,3,0):  y(2,3,0) + y(3,2,0) = 1
triangle2(2,3,1):  y(2,3,1) + y(3,2,1) = 1
triangle2(2,3,2):  y(2,3,2) + y(3,2,2) = 1
triangle2(2,3,3):  y(2,3,3) + y(3,2,3) = 1
MCLinV(0,1,0):  x(0,0) - v(0,1,0) - x(1,0) = 8
MCLinV(1,0,0):  - x(0,0) - v(1,0,0) + x(1,0) = 2
MCLin1(0,1,0):  u(0,1,0) >= -0
MCLin2(0,1,0):  -74 y(1,0,0) - u(0,1,0) <= -0
MCLin3(0,1,0):  82 y(1,0,0) + v(0,1,0) - u(0,1,0) <= 82
MCLin4(0,1,0):  82 y(1,0,0) - u(0,1,0) >= -0
MCLin5(0,1,0):  -74 y(1,0,0) + v(0,1,0) - u(0,1,0) >= -74
MCLin6(1,0,0):  u(1,0,0) >= -0
MCLin7(1,0,0):  -92 y(0,1,0) - u(1,0,0) <= -0
MCLin8(1,0,0):  64 y(0,1,0) + v(1,0,0) - u(1,0,0) <= 64
MCLin9(1,0,0):  64 y(0,1,0) - u(1,0,0) >= -0
MCLin10(1,0,0):  -92 y(0,1,0) + v(1,0,0) - u(1,0,0) >= -92
MCLinV(0,1,1):  x(0,1) - v(0,1,1) - x(1,1) = 5
MCLinV(1,0,1):  - x(0,1) - v(1,0,1) + x(1,1) = 10
MCLin1(0,1,1):  u(0,1,1) >= -0
MCLin2(0,1,1):  -99 y(1,0,1) - u(0,1,1) <= -0
MCLin3(0,1,1):  57 y(1,0,1) + v(0,1,1) - u(0,1,1) <= 57
MCLin4(0,1,1):  57 y(1,0,1) - u(0,1,1) >= -0
MCLin5(0,1,1):  -99 y(1,0,1) + v(0,1,1) - u(0,1,1) >= -99
MCLin6(1,0,1):  u(1,0,1) >= -0
MCLin7(1,0,1):  -72 y(0,1,1) - u(1,0,1) <= -0
MCLin8(1,0,1):  84 y(0,1,1) + v(1,0,1) - u(1,0,1) <= 84
MCLin9(1,0,1):  84 y(0,1,1) - u(1,0,1) >= -0
MCLin10(1,0,1):  -72 y(0,1,1) + v(1,0,1) - u(1,0,1) >= -72
MCLinV(0,1,2):  x(0,2) - v(0,1,2) - x(1,2) = 6
MCLinV(1,0,2):  - x(0,2) - v(1,0,2) + x(1,2) = 2
MCLin1(0,1,2):  u(0,1,2) >= -0
MCLin2(0,1,2):  -75 y(1,0,2) - u(0,1,2) <= -0
MCLin3(0,1,2):  81 y(1,0,2) + v(0,1,2) - u(0,1,2) <= 81
MCLin4(0,1,2):  81 y(1,0,2) - u(0,1,2) >= -0
MCLin5(0,1,2):  -75 y(1,0,2) + v(0,1,2) - u(0,1,2) >= -75
MCLin6(1,0,2):  u(1,0,2) >= -0
MCLin7(1,0,2):  -89 y(0,1,2) - u(1,0,2) <= -0
MCLin8(1,0,2):  67 y(0,1,2) + v(1,0,2) - u(1,0,2) <= 67
MCLin9(1,0,2):  67 y(0,1,2) - u(1,0,2) >= -0
MCLin10(1,0,2):  -89 y(0,1,2) + v(1,0,2) - u(1,0,2) >= -89
MCLinV(0,1,3):  x(0,3) - v(0,1,3) - x(1,3) = 1
MCLinV(1,0,3):  - x(0,3) - v(1,0,3) + x(1,3) = 8
MCLin1(0,1,3):  u(0,1,3) >= -0
MCLin2(0,1,3):  -74 y(1,0,3) - u(0,1,3) <= -0
MCLin3(0,1,3):  82 y(1,0,3) + v(0,1,3) - u(0,1,3) <= 82
MCLin4(0,1,3):  82 y(1,0,3) - u(0,1,3) >= -0
MCLin5(0,1,3):  -74 y(1,0,3) + v(0,1,3) - u(0,1,3) >= -74
MCLin6(1,0,3):  u(1,0,3) >= -0
MCLin7(1,0,3):  -91 y(0,1,3) - u(1,0,3) <= -0
MCLin8(1,0,3):  65 y(0,1,3) + v(1,0,3) - u(1,0,3) <= 65
MCLin9(1,0,3):  65 y(0,1,3) - u(1,0,3) >= -0
MCLin10(1,0,3):  -91 y(0,1,3) + v(1,0,3) - u(1,0,3) >= -91
MCLinV(0,2,0):  x(0,0) - v(0,2,0) - x(2,0) = 10
MCLinV(2,0,0):  - x(0,0) - v(2,0,0) + x(2,0) = 2
MCLin1(0,2,0):  u(0,2,0) >= -0
MCLin2(0,2,0):  -67 y(2,0,0) - u(0,2,0) <= -0
MCLin3(0,2,0):  85 y(2,0,0) + v(0,2,0) - u(0,2,0) <= 85
MCLin4(0,2,0):  85 y(2,0,0) - u(0,2,0) >= -0
MCLin5(0,2,0):  -67 y(2,0,0) + v(0,2,0) - u(0,2,0) >= -67
MCLin6(2,0,0):  u(2,0,0) >= -0
MCLin7(2,0,0):  -97 y(0,2,0) - u(2,0,0) <= -0
MCLin8(2,0,0):  55 y(0,2,0) + v(2,0,0) - u(2,0,0) <= 55
MCLin9(2,0,0):  55 y(0,2,0) - u(2,0,0) >= -0
MCLin10(2,0,0):  -97 y(0,2,0) + v(2,0,0) - u(2,0,0) >= -97
MCLinV(0,2,1):  x(0,1) - v(0,2,1) - x(2,1) = 8
MCLinV(2,0,1):  - x(0,1) - v(2,0,1) + x(2,1) = 10
MCLin1(0,2,1):  u(0,2,1) >= -0
MCLin2(0,2,1):  -99 y(2,0,1) - u(0,2,1) <= -0
MCLin3(0,2,1):  53 y(2,0,1) + v(0,2,1) - u(0,2,1) <= 53
MCLin4(0,2,1):  53 y(2,0,1) - u(0,2,1) >= -0
MCLin5(0,2,1):  -99 y(2,0,1) + v(0,2,1) - u(0,2,1) >= -99
MCLin6(2,0,1):  u(2,0,1) >= -0
MCLin7(2,0,1):  -71 y(0,2,1) - u(2,0,1) <= -0
MCLin8(2,0,1):  81 y(0,2,1) + v(2,0,1) - u(2,0,1) <= 81
MCLin9(2,0,1):  81 y(0,2,1) - u(2,0,1) >= -0
MCLin10(2,0,1):  -71 y(0,2,1) + v(2,0,1) - u(2,0,1) >= -71
MCLinV(0,2,2):  x(0,2) - v(0,2,2) - x(2,2) = 2
MCLinV(2,0,2):  - x(0,2) - v(2,0,2) + x(2,2) = 2
MCLin1(0,2,2):  u(0,2,2) >= -0
MCLin2(0,2,2):  -67 y(2,0,2) - u(0,2,2) <= -0
MCLin3(0,2,2):  85 y(2,0,2) + v(0,2,2) - u(0,2,2) <= 85
MCLin4(0,2,2):  85 y(2,0,2) - u(0,2,2) >= -0
MCLin5(0,2,2):  -67 y(2,0,2) + v(0,2,2) - u(0,2,2) >= -67
MCLin6(2,0,2):  u(2,0,2) >= -0
MCLin7(2,0,2):  -89 y(0,2,2) - u(2,0,2) <= -0
MCLin8(2,0,2):  63 y(0,2,2) + v(2,0,2) - u(2,0,2) <= 63
MCLin9(2,0,2):  63 y(0,2,2) - u(2,0,2) >= -0
MCLin10(2,0,2):  -89 y(0,2,2) + v(2,0,2) - u(2,0,2) >= -89
MCLinV(0,2,3):  x(0,3) - v(0,2,3) - x(2,3) = 4
MCLinV(2,0,3):  - x(0,3) - v(2,0,3) + x(2,3) = 8
MCLin1(0,2,3):  u(0,2,3) >= -0
MCLin2(0,2,3):  -79 y(2,0,3) - u(0,2,3) <= -0
MCLin3(0,2,3):  73 y(2,0,3) + v(0,2,3) - u(0,2,3) <= 73
MCLin4(0,2,3):  73 y(2,0,3) - u(0,2,3) >= -0
MCLin5(0,2,3):  -79 y(2,0,3) + v(0,2,3) - u(0,2,3) >= -79
MCLin6(2,0,3):  u(2,0,3) >= -0
MCLin7(2,0,3):  -85 y(0,2,3) - u(2,0,3) <= -0
MCLin8(2,0,3):  67 y(0,2,3) + v(2,0,3) - u(2,0,3) <= 67
MCLin9(2,0,3):  67 y(0,2,3) - u(2,0,3) >= -0
MCLin10(2,0,3):  -85 y(0,2,3) + v(2,0,3) - u(2,0,3) >= -85
MCLinV(0,3,0):  x(0,0) - v(0,3,0) - x(3,0) = 8
MCLinV(3,0,0):  - x(0,0) - v(3,0,0) + x(3,0) = 2
MCLin1(0,3,0):  u(0,3,0) >= -0
MCLin2(0,3,0):  -79 y(3,0,0) - u(0,3,0) <= -0
MCLin3(0,3,0):  64 y(3,0,0) + v(0,3,0) - u(0,3,0) <= 64
MCLin4(0,3,0):  64 y(3,0,0) - u(0,3,0) >= -0
MCLin5(0,3,0):  -79 y(3,0,0) + v(0,3,0) - u(0,3,0) >= -79
MCLin6(3,0,0):  u(3,0,0) >= -0
MCLin7(3,0,0):  -74 y(0,3,0) - u(3,0,0) <= -0
MCLin8(3,0,0):  69 y(0,3,0) + v(3,0,0) - u(3,0,0) <= 69
MCLin9(3,0,0):  69 y(0,3,0) - u(3,0,0) >= -0
MCLin10(3,0,0):  -74 y(0,3,0) + v(3,0,0) - u(3,0,0) >= -74
MCLinV(0,3,1):  x(0,1) - v(0,3,1) - x(3,1) = 8
MCLinV(3,0,1):  - x(0,1) - v(3,0,1) + x(3,1) = 10
MCLin1(0,3,1):  u(0,3,1) >= -0
MCLin2(0,3,1):  -91 y(3,0,1) - u(0,3,1) <= -0
MCLin3(0,3,1):  52 y(3,0,1) + v(0,3,1) - u(0,3,1) <= 52
MCLin4(0,3,1):  52 y(3,0,1) - u(0,3,1) >= -0
MCLin5(0,3,1):  -91 y(3,0,1) + v(0,3,1) - u(0,3,1) >= -91
MCLin6(3,0,1):  u(3,0,1) >= -0
MCLin7(3,0,1):  -70 y(0,3,1) - u(3,0,1) <= -0
MCLin8(3,0,1):  73 y(0,3,1) + v(3,0,1) - u(3,0,1) <= 73
MCLin9(3,0,1):  73 y(0,3,1) - u(3,0,1) >= -0
MCLin10(3,0,1):  -70 y(0,3,1) + v(3,0,1) - u(3,0,1) >= -70
MCLinV(0,3,2):  x(0,2) - v(0,3,2) - x(3,2) = 8
MCLinV(3,0,2):  - x(0,2) - v(3,0,2) + x(3,2) = 2
MCLin1(0,3,2):  u(0,3,2) >= -0
MCLin2(0,3,2):  -64 y(3,0,2) - u(0,3,2) <= -0
MCLin3(0,3,2):  79 y(3,0,2) + v(0,3,2) - u(0,3,2) <= 79
MCLin4(0,3,2):  79 y(3,0,2) - u(0,3,2) >= -0
MCLin5(0,3,2):  -64 y(3,0,2) + v(0,3,2) - u(0,3,2) >= -64
MCLin6(3,0,2):  u(3,0,2) >= -0
MCLin7(3,0,2):  -89 y(0,3,2) - u(3,0,2) <= -0
MCLin8(3,0,2):  54 y(0,3,2) + v(3,0,2) - u(3,0,2) <= 54
MCLin9(3,0,2):  54 y(0,3,2) - u(3,0,2) >= -0
MCLin10(3,0,2):  -89 y(0,3,2) + v(3,0,2) - u(3,0,2) >= -89
MCLinV(0,3,3):  x(0,3) - v(0,3,3) - x(3,3) = 9
MCLinV(3,0,3):  - x(0,3) - v(3,0,3) + x(3,3) = 8
MCLin1(0,3,3):  u(0,3,3) >= -0
MCLin2(0,3,3):  -71 y(3,0,3) - u(0,3,3) <= -0
MCLin3(0,3,3):  72 y(3,0,3) + v(0,3,3) - u(0,3,3) <= 72
MCLin4(0,3,3):  72 y(3,0,3) - u(0,3,3) >= -0
MCLin5(0,3,3):  -71 y(3,0,3) + v(0,3,3) - u(0,3,3) >= -71
MCLin6(3,0,3):  u(3,0,3) >= -0
MCLin7(3,0,3):  -89 y(0,3,3) - u(3,0,3) <= -0
MCLin8(3,0,3):  54 y(0,3,3) + v(3,0,3) - u(3,0,3) <= 54
MCLin9(3,0,3):  54 y(0,3,3) - u(3,0,3) >= -0
MCLin10(3,0,3):  -89 y(0,3,3) + v(3,0,3) - u(3,0,3) >= -89
MCLinV(1,2,0):  x(1,0) - v(1,2,0) - x(2,0) = 10
MCLinV(2,1,0):  - x(1,0) - v(2,1,0) + x(2,0) = 8
MCLin1(1,2,0):  u(1,2,0) >= -0
MCLin2(1,2,0):  -80 y(2,1,0) - u(1,2,0) <= -0
MCLin3(1,2,0):  74 y(2,1,0) + v(1,2,0) - u(1,2,0) <= 74
MCLin4(1,2,0):  74 y(2,1,0) - u(1,2,0) >= -0
MCLin5(1,2,0):  -80 y(2,1,0) + v(1,2,0) - u(1,2,0) >= -80
MCLin6(2,1,0):  u(2,1,0) >= -0
MCLin7(2,1,0):  -92 y(1,2,0) - u(2,1,0) <= -0
MCLin8(2,1,0):  62 y(1,2,0) + v(2,1,0) - u(2,1,0) <= 62
MCLin9(2,1,0):  62 y(1,2,0) - u(2,1,0) >= -0
MCLin10(2,1,0):  -92 y(1,2,0) + v(2,1,0) - u(2,1,0) >= -92
MCLinV(1,2,1):  x(1,1) - v(1,2,1) - x(2,1) = 8
MCLinV(2,1,1):  - x(1,1) - v(2,1,1) + x(2,1) = 5
MCLin1(1,2,1):  u(1,2,1) >= -0
MCLin2(1,2,1):  -84 y(2,1,1) - u(1,2,1) <= -0
MCLin3(1,2,1):  70 y(2,1,1) + v(1,2,1) - u(1,2,1) <= 70
MCLin4(1,2,1):  70 y(2,1,1) - u(1,2,1) >= -0
MCLin5(1,2,1):  -84 y(2,1,1) + v(1,2,1) - u(1,2,1) >= -84
MCLin6(2,1,1):  u(2,1,1) >= -0
MCLin7(2,1,1):  -83 y(1,2,1) - u(2,1,1) <= -0
MCLin8(2,1,1):  71 y(1,2,1) + v(2,1,1) - u(2,1,1) <= 71
MCLin9(2,1,1):  71 y(1,2,1) - u(2,1,1) >= -0
MCLin10(2,1,1):  -83 y(1,2,1) + v(2,1,1) - u(2,1,1) >= -83
MCLinV(1,2,2):  x(1,2) - v(1,2,2) - x(2,2) = 2
MCLinV(2,1,2):  - x(1,2) - v(2,1,2) + x(2,2) = 6
MCLin1(1,2,2):  u(1,2,2) >= -0
MCLin2(1,2,2):  -77 y(2,1,2) - u(1,2,2) <= -0
MCLin3(1,2,2):  77 y(2,1,2) + v(1,2,2) - u(1,2,2) <= 77
MCLin4(1,2,2):  77 y(2,1,2) - u(1,2,2) >= -0
MCLin5(1,2,2):  -77 y(2,1,2) + v(1,2,2) - u(1,2,2) >= -77
MCLin6(2,1,2):  u(2,1,2) >= -0
MCLin7(2,1,2):  -85 y(1,2,2) - u(2,1,2) <= -0
MCLin8(2,1,2):  69 y(1,2,2) + v(2,1,2) - u(2,1,2) <= 69
MCLin9(2,1,2):  69 y(1,2,2) - u(2,1,2) >= -0
MCLin10(2,1,2):  -85 y(1,2,2) + v(2,1,2) - u(2,1,2) >= -85
MCLinV(1,2,3):  x(1,3) - v(1,2,3) - x(2,3) = 4
MCLinV(2,1,3):  - x(1,3) - v(2,1,3) + x(2,3) = 1
MCLin1(1,2,3):  u(1,2,3) >= -0
MCLin2(1,2,3):  -85 y(2,1,3) - u(1,2,3) <= -0
MCLin3(1,2,3):  69 y(2,1,3) + v(1,2,3) - u(1,2,3) <= 69
MCLin4(1,2,3):  69 y(2,1,3) - u(1,2,3) >= -0
MCLin5(1,2,3):  -85 y(2,1,3) + v(1,2,3) - u(1,2,3) >= -85
MCLin6(2,1,3):  u(2,1,3) >= -0
MCLin7(2,1,3):  -74 y(1,2,3) - u(2,1,3) <= -0
MCLin8(2,1,3):  80 y(1,2,3) + v(2,1,3) - u(2,1,3) <= 80
MCLin9(2,1,3):  80 y(1,2,3) - u(2,1,3) >= -0
MCLin10(2,1,3):  -74 y(1,2,3) + v(2,1,3) - u(2,1,3) >= -74
MCLinV(1,3,0):  x(1,0) - v(1,3,0) - x(3,0) = 8
MCLinV(3,1,0):  - x(1,0) - v(3,1,0) + x(3,0) = 8
MCLin1(1,3,0):  u(1,3,0) >= -0
MCLin2(1,3,0):  -92 y(3,1,0) - u(1,3,0) <= -0
MCLin3(1,3,0):  53 y(3,1,0) + v(1,3,0) - u(1,3,0) <= 53
MCLin4(1,3,0):  53 y(3,1,0) - u(1,3,0) >= -0
MCLin5(1,3,0):  -92 y(3,1,0) + v(1,3,0) - u(1,3,0) >= -92
MCLin6(3,1,0):  u(3,1,0) >= -0
MCLin7(3,1,0):  -69 y(1,3,0) - u(3,1,0) <= -0
MCLin8(3,1,0):  76 y(1,3,0) + v(3,1,0) - u(3,1,0) <= 76
MCLin9(3,1,0):  76 y(1,3,0) - u(3,1,0) >= -0
MCLin10(3,1,0):  -69 y(1,3,0) + v(3,1,0) - u(3,1,0) >= -69
MCLinV(1,3,1):  x(1,1) - v(1,3,1) - x(3,1) = 8
MCLinV(3,1,1):  - x(1,1) - v(3,1,1) + x(3,1) = 5
MCLin1(1,3,1):  u(1,3,1) >= -0
MCLin2(1,3,1):  -76 y(3,1,1) - u(1,3,1) <= -0
MCLin3(1,3,1):  69 y(3,1,1) + v(1,3,1) - u(1,3,1) <= 69
MCLin4(1,3,1):  69 y(3,1,1) - u(1,3,1) >= -0
MCLin5(1,3,1):  -76 y(3,1,1) + v(1,3,1) - u(1,3,1) >= -76
MCLin6(3,1,1):  u(3,1,1) >= -0
MCLin7(3,1,1):  -82 y(1,3,1) - u(3,1,1) <= -0
MCLin8(3,1,1):  63 y(1,3,1) + v(3,1,1) - u(3,1,1) <= 63
MCLin9(3,1,1):  63 y(1,3,1) - u(3,1,1) >= -0
MCLin10(3,1,1):  -82 y(1,3,1) + v(3,1,1) - u(3,1,1) >= -82
MCLinV(1,3,2):  x(1,2) - v(1,3,2) - x(3,2) = 8
MCLinV(3,1,2):  - x(1,2) - v(3,1,2) + x(3,2) = 6
MCLin1(1,3,2):  u(1,3,2) >= -0
MCLin2(1,3,2):  -74 y(3,1,2) - u(1,3,2) <= -0
MCLin3(1,3,2):  71 y(3,1,2) + v(1,3,2) - u(1,3,2) <= 71
MCLin4(1,3,2):  71 y(3,1,2) - u(1,3,2) >= -0
MCLin5(1,3,2):  -74 y(3,1,2) + v(1,3,2) - u(1,3,2) >= -74
MCLin6(3,1,2):  u(3,1,2) >= -0
MCLin7(3,1,2):  -85 y(1,3,2) - u(3,1,2) <= -0
MCLin8(3,1,2):  60 y(1,3,2) + v(3,1,2) - u(3,1,2) <= 60
MCLin9(3,1,2):  60 y(1,3,2) - u(3,1,2) >= -0
MCLin10(3,1,2):  -85 y(1,3,2) + v(3,1,2) - u(3,1,2) >= -85
MCLinV(1,3,3):  x(1,3) - v(1,3,3) - x(3,3) = 9
MCLinV(3,1,3):  - x(1,3) - v(3,1,3) + x(3,3) = 1
MCLin1(1,3,3):  u(1,3,3) >= -0
MCLin2(1,3,3):  -77 y(3,1,3) - u(1,3,3) <= -0
MCLin3(1,3,3):  68 y(3,1,3) + v(1,3,3) - u(1,3,3) <= 68
MCLin4(1,3,3):  68 y(3,1,3) - u(1,3,3) >= -0
MCLin5(1,3,3):  -77 y(3,1,3) + v(1,3,3) - u(1,3,3) >= -77
MCLin6(3,1,3):  u(3,1,3) >= -0
MCLin7(3,1,3):  -78 y(1,3,3) - u(3,1,3) <= -0
MCLin8(3,1,3):  67 y(1,3,3) + v(3,1,3) - u(3,1,3) <= 67
MCLin9(3,1,3):  67 y(1,3,3) - u(3,1,3) >= -0
MCLin10(3,1,3):  -78 y(1,3,3) + v(3,1,3) - u(3,1,3) >= -78
MCLinV(2,3,0):  x(2,0) - v(2,3,0) - x(3,0) = 8
MCLinV(3,2,0):  - x(2,0) - v(3,2,0) + x(3,0) = 10
MCLin1(2,3,0):  u(2,3,0) >= -0
MCLin2(2,3,0):  -97 y(3,2,0) - u(2,3,0) <= -0
MCLin3(2,3,0):  44 y(3,2,0) + v(2,3,0) - u(2,3,0) <= 44
MCLin4(2,3,0):  44 y(3,2,0) - u(2,3,0) >= -0
MCLin5(2,3,0):  -97 y(3,2,0) + v(2,3,0) - u(2,3,0) >= -97
MCLin6(3,2,0):  u(3,2,0) >= -0
MCLin7(3,2,0):  -62 y(2,3,0) - u(3,2,0) <= -0
MCLin8(3,2,0):  79 y(2,3,0) + v(3,2,0) - u(3,2,0) <= 79
MCLin9(3,2,0):  79 y(2,3,0) - u(3,2,0) >= -0
MCLin10(3,2,0):  -62 y(2,3,0) + v(3,2,0) - u(3,2,0) >= -62
MCLinV(2,3,1):  x(2,1) - v(2,3,1) - x(3,1) = 8
MCLinV(3,2,1):  - x(2,1) - v(3,2,1) + x(3,1) = 8
MCLin1(2,3,1):  u(2,3,1) >= -0
MCLin2(2,3,1):  -75 y(3,2,1) - u(2,3,1) <= -0
MCLin3(2,3,1):  66 y(3,2,1) + v(2,3,1) - u(2,3,1) <= 66
MCLin4(2,3,1):  66 y(3,2,1) - u(2,3,1) >= -0
MCLin5(2,3,1):  -75 y(3,2,1) + v(2,3,1) - u(2,3,1) >= -75
MCLin6(3,2,1):  u(3,2,1) >= -0
MCLin7(3,2,1):  -82 y(2,3,1) - u(3,2,1) <= -0
MCLin8(3,2,1):  59 y(2,3,1) + v(3,2,1) - u(3,2,1) <= 59
MCLin9(3,2,1):  59 y(2,3,1) - u(3,2,1) >= -0
MCLin10(3,2,1):  -82 y(2,3,1) + v(3,2,1) - u(3,2,1) >= -82
MCLinV(2,3,2):  x(2,2) - v(2,3,2) - x(3,2) = 8
MCLinV(3,2,2):  - x(2,2) - v(3,2,2) + x(3,2) = 2
MCLin1(2,3,2):  u(2,3,2) >= -0
MCLin2(2,3,2):  -74 y(3,2,2) - u(2,3,2) <= -0
MCLin3(2,3,2):  67 y(3,2,2) + v(2,3,2) - u(2,3,2) <= 67
MCLin4(2,3,2):  67 y(3,2,2) - u(2,3,2) >= -0
MCLin5(2,3,2):  -74 y(3,2,2) + v(2,3,2) - u(2,3,2) >= -74
MCLin6(3,2,2):  u(3,2,2) >= -0
MCLin7(3,2,2):  -77 y(2,3,2) - u(3,2,2) <= -0
MCLin8(3,2,2):  64 y(2,3,2) + v(3,2,2) - u(3,2,2) <= 64
MCLin9(3,2,2):  64 y(2,3,2) - u(3,2,2) >= -0
MCLin10(3,2,2):  -77 y(2,3,2) + v(3,2,2) - u(3,2,2) >= -77
MCLinV(2,3,3):  x(2,3) - v(2,3,3) - x(3,3) = 9
MCLinV(3,2,3):  - x(2,3) - v(3,2,3) + x(3,3) = 4
MCLin1(2,3,3):  u(2,3,3) >= -0
MCLin2(2,3,3):  -71 y(3,2,3) - u(2,3,3) <= -0
MCLin3(2,3,3):  70 y(3,2,3) + v(2,3,3) - u(2,3,3) <= 70
MCLin4(2,3,3):  70 y(3,2,3) - u(2,3,3) >= -0
MCLin5(2,3,3):  -71 y(3,2,3) + v(2,3,3) - u(2,3,3) >= -71
MCLin6(3,2,3):  u(3,2,3) >= -0
MCLin7(3,2,3):  -83 y(2,3,3) - u(3,2,3) <= -0
MCLin8(3,2,3):  58 y(2,3,3) + v(3,2,3) - u(3,2,3) <= 58
MCLin9(3,2,3):  58 y(2,3,3) - u(3,2,3) >= -0
MCLin10(3,2,3):  -83 y(2,3,3) + v(3,2,3) - u(3,2,3) >= -83
makespan(0):  C - x(0,0) >= 2
makespan(1):  C - x(1,1) >= 5
makespan(2):  C - x(2,1) >= 8
makespan(3):  C - x(3,0) >= 8
cut_clique_0(0123,0):  0.07831 x(1,0) + 0.03012 x(2,0) >= 1
cut_clique_0(123,0):  0.07831 x(1,0) + 0.03012 x(2,0) >= 1
cut_clique_0(012,0):  0.07831 x(1,0) + 0.03012 x(2,0) >= 1
cut_clique_0(0123,1):  0.00643 x(1,1) + 0.01648 x(2,1) + 0.02211 x(3,1) >= 1
cut_clique_0(123,1):  0.00643 x(1,1) + 0.01648 x(2,1) + 0.02211 x(3,1) >= 1
cut_clique_0(023,1):  0.02134 x(2,1) + 0.02744 x(3,1) >= 1
cut_clique_0(012,1):  0.01667 x(1,1) + 0.03750 x(2,1) >= 1
cut_clique_0(013,1):  0.01224 x(1,1) + 0.04082 x(3,1) >= 1
cut_clique_0(0123,2):  0.12500 x(2,2) + 0.50000 x(3,2) >= 1
cut_clique_0(123,2):  0.12500 x(2,2) + 0.50000 x(3,2) >= 1
cut_clique_0(013,2):  0.12500 x(1,2) + 0.16667 x(3,2) >= 1
cut_clique_0(023,2):  0.12500 x(2,2) + 0.50000 x(3,2) >= 1
cut_clique_0(0123,3):  0.01348 x(0,3) + 0.03504 x(2,3) + 0.01516 x(3,3) >= 1
cut_clique_0(123,3):  0.04545 x(2,3) + 0.02841 x(3,3) >= 1
cut_clique_0(023,3):  0.01348 x(0,3) + 0.03504 x(2,3) + 0.01516 x(3,3) >= 1
Bounds
 0 <= C <= 99
 20 <= x(0,0) <= 97
 0 <= y(0,1,0) <= 1
 0 <= y(1,0,0) <= 1
 -74 <= v(0,1,0) <= 82
 -92 <= v(1,0,0) <= 64
 -990 <= u(0,1,0)
 -990 <= u(1,0,0)
 0 <= y(0,2,0) <= 1
 0 <= y(2,0,0) <= 1
 -67 <= v(0,2,0) <= 85
 -97 <= v(2,0,0) <= 55
 -990 <= u(0,2,0)
 -990 <= u(2,0,0)
 0 <= y(0,3,0) <= 1
 0 <= y(3,0,0) <= 1
 -79 <= v(0,3,0) <= 64
 -74 <= v(3,0,0) <= 69
 -990 <= u(0,3,0)
 -990 <= u(3,0,0)
 7 <= x(1,0) <= 86
 0 <= y(1,2,0) <= 1
 0 <= y(2,1,0) <= 1
 -80 <= v(1,2,0) <= 74
 -92 <= v(2,1,0) <= 62
 -990 <= u(1,2,0)
 -990 <= u(2,1,0)
 0 <= y(1,3,0) <= 1
 0 <= y(3,1,0) <= 1
 -92 <= v(1,3,0) <= 53
 -69 <= v(3,1,0) <= 76
 -990 <= u(1,3,0)
 -990 <= u(3,1,0)
 2 <= x(2,0) <= 77
 0 <= y(2,3,0) <= 1
 0 <= y(3,2,0) <= 1
 -97 <= v(2,3,0) <= 44
 -62 <= v(3,2,0) <= 79
 -990 <= u(2,3,0)
 -990 <= u(3,2,0)
 25 <= x(3,0) <= 91
 0 <= x(0,1) <= 77
 0 <= y(0,1,1) <= 1
 0 <= y(1,0,1) <= 1
 -99 <= v(0,1,1) <= 57
 -72 <= v(1,0,1) <= 84
 -990 <= u(0,1,1)
 -990 <= u(1,0,1)
 0 <= y(0,2,1) <= 1
 0 <= y(2,0,1) <= 1
 -99 <= v(0,2,1) <= 53
 -71 <= v(2,0,1) <= 81
 -990 <= u(0,2,1)
 -990 <= u(2,0,1)
 0 <= y(0,3,1) <= 1
 0 <= y(3,0,1) <= 1
 -91 <= v(0,3,1) <= 52
 -70 <= v(3,0,1) <= 73
 -990 <= u(0,3,1)
 -990 <= u(3,0,1)
 15 <= x(1,1) <= 94
 0 <= y(1,2,1) <= 1
 0 <= y(2,1,1) <= 1
 -84 <= v(1,2,1) <= 70
 -83 <= v(2,1,1) <= 71
 -990 <= u(1,2,1)
 -990 <= u(2,1,1)
 0 <= y(1,3,1) <= 1
 0 <= y(3,1,1) <= 1
 -76 <= v(1,3,1) <= 69
 -82 <= v(3,1,1) <= 63
 -990 <= u(1,3,1)
 -990 <= u(3,1,1)
 16 <= x(2,1) <= 91
 0 <= y(2,3,1) <= 1
 0 <= y(3,2,1) <= 1
 -75 <= v(2,3,1) <= 66
 -82 <= v(3,2,1) <= 59
 -990 <= u(2,3,1)
 -990 <= u(3,2,1)
 17 <= x(3,1) <= 83
 10 <= x(0,2) <= 87
 0 <= y(0,1,2) <= 1
 0 <= y(1,0,2) <= 1
 -75 <= v(0,1,2) <= 81
 -89 <= v(1,0,2) <= 67
 -990 <= u(0,1,2)
 -990 <= u(1,0,2)
 0 <= y(0,2,2) <= 1
 0 <= y(2,0,2) <= 1
 -67 <= v(0,2,2) <= 85
 -89 <= v(2,0,2) <= 63
 -990 <= u(0,2,2)
 -990 <= u(2,0,2)
 0 <= y(0,3,2) <= 1
 0 <= y(3,0,2) <= 1
 -64 <= v(0,3,2) <= 79
 -89 <= v(3,0,2) <= 54
 -990 <= u(0,3,2)
 -990 <= u(3,0,2)
 0 <= x(1,2) <= 79
 0 <= y(1,2,2) <= 1
 0 <= y(2,1,2) <= 1
 -77 <= v(1,2,2) <= 77
 -85 <= v(2,1,2) <= 69
 -990 <= u(1,2,2)
 -990 <= u(2,1,2)
 0 <= y(1,3,2) <= 1
 0 <= y(3,1,2) <= 1
 -74 <= v(1,3,2) <= 71
 -85 <= v(3,1,2) <= 60
 -990 <= u(1,3,2)
 -990 <= u(3,1,2)
 0 <= x(2,2) <= 75
 0 <= y(2,3,2) <= 1
 0 <= y(3,2,2) <= 1
 -74 <= v(2,3,2) <= 67
 -77 <= v(3,2,2) <= 64
 -990 <= u(2,3,2)
 -990 <= u(3,2,2)
 0 <= x(3,2) <= 66
 12 <= x(0,3) <= 89
 0 <= y(0,1,3) <= 1
 0 <= y(1,0,3) <= 1
 -74 <= v(0,1,3) <= 82
 -91 <= v(1,0,3) <= 65
 -990 <= u(0,1,3)
 -990 <= u(1,0,3)
 0 <= y(0,2,3) <= 1
 0 <= y(2,0,3) <= 1
 -79 <= v(0,2,3) <= 73
 -85 <= v(2,0,3) <= 67
 -990 <= u(0,2,3)
 -990 <= u(2,0,3)
 0 <= y(0,3,3) <= 1
 0 <= y(3,0,3) <= 1
 -71 <= v(0,3,3) <= 72
 -89 <= v(3,0,3) <= 54
 -990 <= u(0,3,3)
 -990 <= u(3,0,3)
 6 <= x(1,3) <= 85
 0 <= y(1,2,3) <= 1
 0 <= y(2,1,3) <= 1
 -85 <= v(1,2,3) <= 69
 -74 <= v(2,1,3) <= 80
 -990 <= u(1,2,3)
 -990 <= u(2,1,3)
 0 <= y(1,3,3) <= 1
 0 <= y(3,1,3) <= 1
 -77 <= v(1,3,3) <= 68
 -78 <= v(3,1,3) <= 67
 -990 <= u(1,3,3)
 -990 <= u(3,1,3)
 12 <= x(2,3) <= 87
 0 <= y(2,3,3) <= 1
 0 <= y(3,2,3) <= 1
 -71 <= v(2,3,3) <= 70
 -83 <= v(3,2,3) <= 58
 -990 <= u(2,3,3)
 -990 <= u(3,2,3)
 8 <= x(3,3) <= 74
Integers
C x(0,0) y(0,1,0) y(1,0,0) v(0,1,0) v(1,0,0) u(0,1,0) u(1,0,0) y(0,2,0) y(2,0,0) 
v(0,2,0) v(2,0,0) u(0,2,0) u(2,0,0) y(0,3,0) y(3,0,0) v(0,3,0) v(3,0,0) u(0,3,0) u(3,0,0) 
x(1,0) y(1,2,0) y(2,1,0) v(1,2,0) v(2,1,0) u(1,2,0) u(2,1,0) y(1,3,0) y(3,1,0) v(1,3,0) 
v(3,1,0) u(1,3,0) u(3,1,0) x(2,0) y(2,3,0) y(3,2,0) v(2,3,0) v(3,2,0) u(2,3,0) u(3,2,0) 
x(3,0) x(0,1) y(0,1,1) y(1,0,1) v(0,1,1) v(1,0,1) u(0,1,1) u(1,0,1) y(0,2,1) y(2,0,1) 
v(0,2,1) v(2,0,1) u(0,2,1) u(2,0,1) y(0,3,1) y(3,0,1) v(0,3,1) v(3,0,1) u(0,3,1) u(3,0,1) 
x(1,1) y(1,2,1) y(2,1,1) v(1,2,1) v(2,1,1) u(1,2,1) u(2,1,1) y(1,3,1) y(3,1,1) v(1,3,1) 
v(3,1,1) u(1,3,1) u(3,1,1) x(2,1) y(2,3,1) y(3,2,1) v(2,3,1) v(3,2,1) u(2,3,1) u(3,2,1) 
x(3,1) x(0,2) y(0,1,2) y(1,0,2) v(0,1,2) v(1,0,2) u(0,1,2) u(1,0,2) y(0,2,2) y(2,0,2) 
v(0,2,2) v(2,0,2) u(0,2,2) u(2,0,2) y(0,3,2) y(3,0,2) v(0,3,2) v(3,0,2) u(0,3,2) u(3,0,2) 
x(1,2) y(1,2,2) y(2,1,2) v(1,2,2) v(2,1,2) u(1,2,2) u(2,1,2) y(1,3,2) y(3,1,2) v(1,3,2) 
v(3,1,2) u(1,3,2) u(3,1,2) x(2,2) y(2,3,2) y(3,2,2) v(2,3,2) v(3,2,2) u(2,3,2) u(3,2,2) 
x(3,2) x(0,3) y(0,1,3) y(1,0,3) v(0,1,3) v(1,0,3) u(0,1,3) u(1,0,3) y(0,2,3) y(2,0,3) 
v(0,2,3) v(2,0,3) u(0,2,3) u(2,0,3) y(0,3,3) y(3,0,3) v(0,3,3) v(3,0,3) u(0,3,3) u(3,0,3) 
x(1,3) y(1,2,3) y(2,1,3) v(1,2,3) v(2,1,3) u(1,2,3) u(2,1,3) y(1,3,3) y(3,1,3) v(1,3,3) 
v(3,1,3) u(1,3,3) u(3,1,3) x(2,3) y(2,3,3) y(3,2,3) v(2,3,3) v(3,2,3) u(2,3,3) u(3,2,3) 
x(3,3) 
End
